3 
4  57 
5  19 35 55 
6  07 20 35 50 
7  08 23 38 53 
8  08 23 38 53 
9  08 23 38 53 
10  08 23 38 53 
11  08 23 38 53 
12  08 23 38 53 
13  08 23 38 53 
14  08 23 38 53 
15  08 23 38 53 
16  08 23 38 53 
17  08 23 38 53 
18  08 23 39 55 
19  10 25 40 55 
20  10 25 40 55 
21  10 25 40 54 
22  09 24 39 54 
23 
0 
